Version identifier: 22.1.1.0 | 2022-11-28 | 9160aff4d
CPXPARAM_Preprocessing_Aggregator                10
CPXPARAM_Preprocessing_NumPass                   10
CPXPARAM_Threads                                 6
CPXPARAM_Parallel                                -1
CPXPARAM_RandomSeed                              43
CPXPARAM_MIP_Cuts_Cliques                        1
CPXPARAM_MIP_Cuts_Covers                         1
CPXPARAM_MIP_Strategy_File                       2
CPXPARAM_MIP_Strategy_VariableSelect             3
CPXPARAM_MIP_Cuts_Implied                        1
CPXPARAM_MIP_Cuts_MIRCut                         1
CPXPARAM_Emphasis_MIP                            1
CPXPARAM_MIP_Limits_Nodes                        100000
CPXPARAM_MIP_Strategy_HeuristicFreq              5
CPXPARAM_MIP_Strategy_RINSHeur                   50
CPXPARAM_TimeLimit                               60
CPXPARAM_WorkMem                                 4096
CPXPARAM_MIP_Tolerances_AbsMIPGap                0.5
CPXPARAM_MIP_Tolerances_MIPGap                   0.050000000000000003
CPXPARAM_MIP_Tolerances_Integrality              0.0001
Tried aggregator 1 time.
MIP Presolve eliminated 32230 rows and 38637 columns.
MIP Presolve added 4 rows and 4 columns.
MIP Presolve modified 26 coefficients.
Reduced MIP has 14 rows, 52 columns, and 128 nonzeros.
Reduced MIP has 18 binaries, 34 generals, 0 SOSs, and 0 indicators.
Presolve time = 0.06 sec. (51.36 ticks)
Found incumbent of value 20406.000000 after 0.06 sec. (58.10 ticks)
Probing time = 0.00 sec. (0.01 ticks)
Tried aggregator 1 time.
Detecting symmetries...
MIP Presolve eliminated 3 rows and 3 columns.
MIP Presolve added 4 rows and 4 columns.
Reduced MIP has 15 rows, 53 columns, and 131 nonzeros.
Reduced MIP has 18 binaries, 35 generals, 0 SOSs, and 0 indicators.
Presolve time = 0.00 sec. (0.10 ticks)
Probing time = 0.00 sec. (0.01 ticks)
Clique table members: 5.
MIP emphasis: integer feasibility.
MIP search method: dynamic search.
Parallel mode: opportunistic, using up to 6 threads.
Root relaxation solution time = 0.00 sec. (0.03 ticks)

        Nodes                                         Cuts/
   Node  Left     Objective  IInf  Best Integer    Best Bound    ItCnt     Gap

*     0+    0                        20406.0000    35877.0000            75.82%
      0     0        cutoff          20406.0000                      0     --- 

Clique cuts applied:  0
Cover cuts applied:  0
Implied bound cuts applied:  0
Mixed integer rounding cuts applied:  0

Root node processing (before b&c):
  Real time             =    0.07 sec. (64.08 ticks)
Parallel b&c, 6 threads:
  Real time             =    0.00 sec. (0.00 ticks)
  Sync time (average)   =    0.00 sec.
  Wait time (average)   =    0.00 sec.
                          ------------
Total (root+branch&cut) =    0.07 sec. (64.08 ticks)
Version identifier: 22.1.1.0 | 2022-11-28 | 9160aff4d
CPXPARAM_Preprocessing_Aggregator                10
CPXPARAM_Preprocessing_NumPass                   10
CPXPARAM_Threads                                 6
CPXPARAM_Parallel                                -1
CPXPARAM_RandomSeed                              43
CPXPARAM_MIP_Cuts_Cliques                        1
CPXPARAM_MIP_Cuts_Covers                         1
CPXPARAM_MIP_Strategy_File                       2
CPXPARAM_MIP_Strategy_VariableSelect             3
CPXPARAM_MIP_Cuts_Implied                        1
CPXPARAM_MIP_Cuts_MIRCut                         1
CPXPARAM_Emphasis_MIP                            1
CPXPARAM_MIP_Limits_Nodes                        100000
CPXPARAM_MIP_Strategy_HeuristicFreq              5
CPXPARAM_MIP_Strategy_RINSHeur                   50
CPXPARAM_TimeLimit                               60
CPXPARAM_WorkMem                                 4096
CPXPARAM_MIP_Tolerances_AbsMIPGap                0.5
CPXPARAM_MIP_Tolerances_MIPGap                   0.050000000000000003
CPXPARAM_MIP_Tolerances_Integrality              0.0001
1 of 1 MIP starts provided solutions.
MIP start 'm1' defined initial solution with objective -0.0000.
Tried aggregator 1 time.
MIP Presolve eliminated 486 rows and 5151 columns.
MIP Presolve added 684 rows and 0 columns.
MIP Presolve modified 81067 coefficients.
Reduced MIP has 32438 rows, 33534 columns, and 276097 nonzeros.
Reduced MIP has 30685 binaries, 2849 generals, 0 SOSs, and 0 indicators.
Presolve time = 0.56 sec. (341.79 ticks)
Probing time = 0.04 sec. (12.63 ticks)
Tried aggregator 1 time.
Detecting symmetries...
Reduced MIP has 32438 rows, 33534 columns, and 276097 nonzeros.
Reduced MIP has 30685 binaries, 2849 generals, 0 SOSs, and 0 indicators.
Presolve time = 0.54 sec. (1298.45 ticks)
Probing time = 0.05 sec. (12.77 ticks)
Clique table members: 12114.
MIP emphasis: integer feasibility.
MIP search method: dynamic search.
Parallel mode: opportunistic, using up to 6 threads.
Root relaxation solution time = 17.69 sec. (33889.25 ticks)

        Nodes                                         Cuts/
   Node  Left     Objective  IInf  Best Integer    Best Bound    ItCnt     Gap

*     0+    0                           -0.0000    48477.0000              --- 
*     0+    0                          675.9752    48477.0000              --- 
      0     0    18586.1141 15664      675.9752    18586.1141       36     --- 
*     0+    0                        14068.7329    18586.1141            32.11%
Advanced basis not built.

Clique cuts applied:  0
Cover cuts applied:  0
Implied bound cuts applied:  0
Mixed integer rounding cuts applied:  0

Root node processing (before b&c):
  Real time             =   60.04 sec. (76701.56 ticks)
Parallel b&c, 6 threads:
  Real time             =    0.00 sec. (0.00 ticks)
  Sync time (average)   =    0.00 sec.
  Wait time (average)   =    0.00 sec.
                          ------------
Total (root+branch&cut) =   60.04 sec. (76701.56 ticks)
Version identifier: 22.1.1.0 | 2022-11-28 | 9160aff4d
CPXPARAM_Preprocessing_Aggregator                10
CPXPARAM_Preprocessing_NumPass                   10
CPXPARAM_Threads                                 6
CPXPARAM_Parallel                                -1
CPXPARAM_RandomSeed                              43
CPXPARAM_MIP_Cuts_Cliques                        1
CPXPARAM_MIP_Cuts_Covers                         1
CPXPARAM_MIP_Strategy_File                       2
CPXPARAM_MIP_Strategy_VariableSelect             3
CPXPARAM_MIP_Cuts_Implied                        1
CPXPARAM_MIP_Cuts_MIRCut                         1
CPXPARAM_Emphasis_MIP                            1
CPXPARAM_MIP_Limits_Nodes                        100000
CPXPARAM_MIP_Strategy_HeuristicFreq              5
CPXPARAM_MIP_Strategy_RINSHeur                   50
CPXPARAM_TimeLimit                               60
CPXPARAM_WorkMem                                 4096
CPXPARAM_MIP_Tolerances_AbsMIPGap                0.5
CPXPARAM_MIP_Tolerances_MIPGap                   0.050000000000000003
CPXPARAM_MIP_Tolerances_Integrality              0.0001
3 of 3 MIP starts provided solutions.
MIP start 'm1' defined initial solution with objective 0.0000.
Tried aggregator 1 time.
MIP Presolve eliminated 486 rows and 5151 columns.
MIP Presolve added 684 rows and 0 columns.
MIP Presolve modified 81067 coefficients.
Reduced MIP has 32438 rows, 33534 columns, and 276097 nonzeros.
Reduced MIP has 30685 binaries, 2849 generals, 0 SOSs, and 0 indicators.
Presolve time = 0.55 sec. (341.79 ticks)
Probing time = 0.05 sec. (12.63 ticks)
Tried aggregator 1 time.
Detecting symmetries...
Reduced MIP has 32438 rows, 33534 columns, and 276097 nonzeros.
Reduced MIP has 30685 binaries, 2849 generals, 0 SOSs, and 0 indicators.
Presolve time = 0.72 sec. (1298.45 ticks)
Probing time = 0.04 sec. (12.77 ticks)
Clique table members: 12114.
MIP emphasis: integer feasibility.
MIP search method: dynamic search.
Parallel mode: opportunistic, using up to 6 threads.
Root relaxation solution time = 14.26 sec. (29720.66 ticks)

        Nodes                                         Cuts/
   Node  Left     Objective  IInf  Best Integer    Best Bound    ItCnt     Gap

*     0+    0                            0.0000    48477.0000              --- 
      0     0    14545.9675 15664        0.0000    14545.9675       28     --- 

Clique cuts applied:  0
Cover cuts applied:  0
Implied bound cuts applied:  0
Mixed integer rounding cuts applied:  0

Root node processing (before b&c):
  Real time             =   60.01 sec. (62655.73 ticks)
Parallel b&c, 6 threads:
  Real time             =    0.00 sec. (0.00 ticks)
  Sync time (average)   =    0.00 sec.
  Wait time (average)   =    0.00 sec.
                          ------------
Total (root+branch&cut) =   60.01 sec. (62655.73 ticks)
Version identifier: 22.1.1.0 | 2022-11-28 | 9160aff4d
CPXPARAM_Preprocessing_Aggregator                10
CPXPARAM_Preprocessing_NumPass                   10
CPXPARAM_Threads                                 6
CPXPARAM_Parallel                                -1
CPXPARAM_RandomSeed                              43
CPXPARAM_MIP_Cuts_Cliques                        1
CPXPARAM_MIP_Cuts_Covers                         1
CPXPARAM_MIP_Strategy_File                       2
CPXPARAM_MIP_Strategy_VariableSelect             3
CPXPARAM_MIP_Cuts_Implied                        1
CPXPARAM_MIP_Cuts_MIRCut                         1
CPXPARAM_Emphasis_MIP                            1
CPXPARAM_MIP_Limits_Nodes                        100000
CPXPARAM_MIP_Strategy_HeuristicFreq              5
CPXPARAM_MIP_Strategy_RINSHeur                   50
CPXPARAM_TimeLimit                               455
CPXPARAM_WorkMem                                 4096
CPXPARAM_MIP_Tolerances_AbsMIPGap                0.5
CPXPARAM_MIP_Tolerances_MIPGap                   0.050000000000000003
CPXPARAM_MIP_Tolerances_Integrality              0.0001
3 of 3 MIP starts provided solutions.
MIP start 'm1' defined initial solution with objective 0.0000.
Tried aggregator 1 time.
MIP Presolve eliminated 486 rows and 5151 columns.
MIP Presolve added 684 rows and 0 columns.
MIP Presolve modified 81067 coefficients.
Reduced MIP has 32438 rows, 33534 columns, and 276097 nonzeros.
Reduced MIP has 30685 binaries, 2849 generals, 0 SOSs, and 0 indicators.
Presolve time = 0.48 sec. (341.79 ticks)
Probing time = 0.05 sec. (12.63 ticks)
Tried aggregator 1 time.
Detecting symmetries...
Reduced MIP has 32438 rows, 33534 columns, and 276097 nonzeros.
Reduced MIP has 30685 binaries, 2849 generals, 0 SOSs, and 0 indicators.
Presolve time = 0.51 sec. (1298.45 ticks)
Probing time = 0.04 sec. (12.77 ticks)
Clique table members: 12114.
MIP emphasis: integer feasibility.
MIP search method: dynamic search.
Parallel mode: opportunistic, using up to 6 threads.
Root relaxation solution time = 13.09 sec. (29720.66 ticks)

        Nodes                                         Cuts/
   Node  Left     Objective  IInf  Best Integer    Best Bound    ItCnt     Gap

*     0+    0                            0.0000    48477.0000              --- 
      0     0    14545.9675 15664        0.0000    14545.9675       28     --- 
      0     0    14340.3402 17951        0.0000    Cuts: 4530     9925     --- 
